\ Model SBL-StripPacking-10
\ LP format - for model browsing. Use MPS format to capture full model detail.
Minimize
  h
Subject To
 Height[0]: - c[0,1] + h >= 10
 Height[1]: - c[1,1] + h >= 12
 Height[2]: - c[2,1] + h >= 5.5
 Height[3]: - c[3,1] + h >= 15
 Height[4]: - c[4,1] + h >= 21
 Height[5]: - c[5,1] + h >= 8.5
 Height[6]: - c[6,1] + h >= 6.5
 Height[7]: - c[7,1] + h >= 32
 Height[8]: - c[8,1] + h >= 35.5
 Height[9]: - c[9,1] + h >= 16
 LB[0,1,0]: c[1,0] + 28 delta[0,1] + 28 delta[1,0] >= 36
 LB[0,1,1]: c[1,1] - 29 delta[0,1] + 29 delta[1,0] >= 12
 LB[0,2,0]: c[2,0] + 28 delta[0,2] + 28 delta[2,0] >= 42.5
 LB[0,2,1]: c[2,1] - 29 delta[0,2] + 29 delta[2,0] >= 5.5
 LB[0,3,0]: c[3,0] + 28 delta[0,3] + 28 delta[3,0] >= 46
 LB[0,3,1]: c[3,1] - 29 delta[0,3] + 29 delta[3,0] >= 15
 LB[0,4,0]: c[4,0] + 28 delta[0,4] + 28 delta[4,0] >= 70.5
 LB[0,4,1]: c[4,1] - 29 delta[0,4] + 29 delta[4,0] >= 21
 LB[0,5,0]: c[5,0] + 28 delta[0,5] + 28 delta[5,0] >= 51
 LB[0,5,1]: c[5,1] - 29 delta[0,5] + 29 delta[5,0] >= 8.5
 LB[0,6,0]: c[6,0] + 28 delta[0,6] + 28 delta[6,0] >= 54
 LB[0,6,1]: c[6,1] - 29 delta[0,6] + 29 delta[6,0] >= 6.5
 LB[0,7,0]: c[7,0] + 28 delta[0,7] + 28 delta[7,0] >= 63
 LB[0,7,1]: c[7,1] - 29 delta[0,7] + 29 delta[7,0] >= 16
 LB[0,8,0]: c[8,0] + 28 delta[0,8] + 28 delta[8,0] >= 68
 LB[0,8,1]: c[8,1] - 29 delta[0,8] + 29 delta[8,0] >= 35.5
 LB[0,9,0]: c[9,0] + 28 delta[0,9] + 28 delta[9,0] >= 40
 LB[0,9,1]: c[9,1] - 29 delta[0,9] + 29 delta[9,0] >= 39
 LB[1,0,0]: c[0,0] - 19 delta[0,1] - 19 delta[1,0] >= 1
 LB[1,0,1]: c[0,1] + 24 delta[0,1] - 24 delta[1,0] >= 19
 LB[1,2,0]: c[2,0] + 31 delta[1,2] + 31 delta[2,1] >= 45.5
 LB[1,2,1]: c[2,1] - 24 delta[1,2] + 24 delta[2,1] >= 5.5
 LB[1,3,0]: c[3,0] + 21 delta[1,3] + 21 delta[3,1] >= 39
 LB[1,3,1]: c[3,1] - 24 delta[1,3] + 24 delta[3,1] >= 15
 LB[1,4,0]: c[4,0] + 16 delta[1,4] + 16 delta[4,1] >= 58.5
 LB[1,4,1]: c[4,1] - 24 delta[1,4] + 24 delta[4,1] >= 21
 LB[1,5,0]: c[5,0] + 31 delta[1,5] + 31 delta[5,1] >= 54
 LB[1,5,1]: c[5,1] - 24 delta[1,5] + 24 delta[5,1] >= 8.5
 LB[1,6,0]: c[6,0] + 17 delta[1,6] + 17 delta[6,1] >= 43
 LB[1,6,1]: c[6,1] - 24 delta[1,6] + 24 delta[6,1] >= 6.5
 LB[1,7,0]: c[7,0] + 16 delta[1,7] + 16 delta[7,1] >= 51
 LB[1,7,1]: c[7,1] - 24 delta[1,7] + 24 delta[7,1] >= 16
 LB[1,8,0]: c[8,0] + 31 delta[1,8] + 31 delta[8,1] >= 71
 LB[1,8,1]: c[8,1] - 24 delta[1,8] + 24 delta[8,1] >= 35.5
 LB[1,9,0]: c[9,0] + 31 delta[1,9] + 31 delta[9,1] >= 43
 LB[1,9,1]: c[9,1] - 24 delta[1,9] + 24 delta[9,1] >= 39
 LB[2,0,0]: c[0,0] - 29 delta[0,2] - 29 delta[2,0] >= -9
 LB[2,0,1]: c[0,1] + 11 delta[0,2] - 11 delta[2,0] >= 19
 LB[2,1,0]: c[1,0] - 29 delta[1,2] - 29 delta[2,1] >= -21
 LB[2,1,1]: c[1,1] + 11 delta[1,2] - 11 delta[2,1] >= 12
 LB[2,3,0]: c[3,0] + 29 delta[2,3] + 29 delta[3,2] >= 47
 LB[2,3,1]: c[3,1] - 11 delta[2,3] + 11 delta[3,2] >= 15
 LB[2,4,0]: c[4,0] + 29 delta[2,4] + 29 delta[4,2] >= 71.5
 LB[2,4,1]: c[4,1] - 11 delta[2,4] + 11 delta[4,2] >= 21
 LB[2,5,0]: c[5,0] + 29 delta[2,5] + 29 delta[5,2] >= 52
 LB[2,5,1]: c[5,1] - 11 delta[2,5] + 11 delta[5,2] >= 8.5
 LB[2,6,0]: c[6,0] + 29 delta[2,6] + 29 delta[6,2] >= 55
 LB[2,6,1]: c[6,1] - 11 delta[2,6] + 11 delta[6,2] >= 6.5
 LB[2,7,0]: c[7,0] + 29 delta[2,7] + 29 delta[7,2] >= 64
 LB[2,7,1]: c[7,1] - 11 delta[2,7] + 11 delta[7,2] >= 16
 LB[2,8,0]: c[8,0] + 29 delta[2,8] + 29 delta[8,2] >= 69
 LB[2,8,1]: c[8,1] - 11 delta[2,8] + 11 delta[8,2] >= 35.5
 LB[2,9,0]: c[9,0] + 29 delta[2,9] + 29 delta[9,2] >= 41
 LB[2,9,1]: c[9,1] - 11 delta[2,9] + 11 delta[9,2] >= 39
 LB[3,0,0]: c[0,0] - 26 delta[0,3] - 26 delta[3,0] >= -6
 LB[3,0,1]: c[0,1] + 30 delta[0,3] - 30 delta[3,0] >= 19
 LB[3,1,0]: c[1,0] - 26 delta[1,3] - 26 delta[3,1] >= -18
 LB[3,1,1]: c[1,1] + 30 delta[1,3] - 30 delta[3,1] >= 12
 LB[3,2,0]: c[2,0] - 26 delta[2,3] - 26 delta[3,2] >= -11.5
 LB[3,2,1]: c[2,1] + 30 delta[2,3] - 30 delta[3,2] >= 5.5
 LB[3,4,0]: c[4,0] + 26 delta[3,4] + 26 delta[4,3] >= 68.5
 LB[3,4,1]: c[4,1] - 30 delta[3,4] + 30 delta[4,3] >= 21
 LB[3,5,0]: c[5,0] + 26 delta[3,5] + 26 delta[5,3] >= 49
 LB[3,5,1]: c[5,1] - 30 delta[3,5] + 30 delta[5,3] >= 8.5
 LB[3,6,0]: c[6,0] + 26 delta[3,6] + 26 delta[6,3] >= 52
 LB[3,6,1]: c[6,1] - 30 delta[3,6] + 30 delta[6,3] >= 6.5
 LB[3,7,0]: c[7,0] + 26 delta[3,7] + 26 delta[7,3] >= 61
 LB[3,7,1]: c[7,1] - 30 delta[3,7] + 30 delta[7,3] >= 16
 LB[3,8,0]: c[8,0] + 26 delta[3,8] + 26 delta[8,3] >= 66
 LB[3,8,1]: c[8,1] - 30 delta[3,8] + 30 delta[8,3] >= 35.5
 LB[3,9,0]: c[9,0] + 26 delta[3,9] + 26 delta[9,3] >= 38
 LB[3,9,1]: c[9,1] - 30 delta[3,9] + 30 delta[9,3] >= 39
 LB[4,0,0]: c[0,0] - 68 delta[0,4] - 68 delta[4,0] >= -48
 LB[4,0,1]: c[0,1] + 42 delta[0,4] - 42 delta[4,0] >= 19
 LB[4,1,0]: c[1,0] - 80 delta[1,4] - 80 delta[4,1] >= -72
 LB[4,1,1]: c[1,1] + 42 delta[1,4] - 42 delta[4,1] >= 12
 LB[4,2,0]: c[2,0] - 80 delta[2,4] - 80 delta[4,2] >= -65.5
 LB[4,2,1]: c[2,1] + 42 delta[2,4] - 42 delta[4,2] >= 5.5
 LB[4,3,0]: c[3,0] - 70 delta[3,4] - 70 delta[4,3] >= -52
 LB[4,3,1]: c[3,1] + 42 delta[3,4] - 42 delta[4,3] >= 15
 LB[4,5,0]: c[5,0] + 80 delta[4,5] + 80 delta[5,4] >= 103
 LB[4,5,1]: c[5,1] - 42 delta[4,5] + 42 delta[5,4] >= 8.5
 LB[4,6,0]: c[6,0] + 66 delta[4,6] + 66 delta[6,4] >= 92
 LB[4,6,1]: c[6,1] - 42 delta[4,6] + 42 delta[6,4] >= 6.5
 LB[4,7,0]: c[7,0] + 60 delta[4,7] + 60 delta[7,4] >= 95
 LB[4,7,1]: c[7,1] - 42 delta[4,7] + 42 delta[7,4] >= 16
 LB[4,8,0]: c[8,0] + 80 delta[4,8] + 80 delta[8,4] >= 120
 LB[4,8,1]: c[8,1] - 42 delta[4,8] + 42 delta[8,4] >= 35.5
 LB[4,9,0]: c[9,0] + 80 delta[4,9] + 80 delta[9,4] >= 92
 LB[4,9,1]: c[9,1] - 42 delta[4,9] + 42 delta[9,4] >= 39
 LB[5,0,0]: c[0,0] - 57 delta[0,5] - 57 delta[5,0] >= -37
 LB[5,0,1]: c[0,1] + 17 delta[0,5] - 17 delta[5,0] >= 19
 LB[5,1,0]: c[1,0] - 69 delta[1,5] - 69 delta[5,1] >= -61
 LB[5,1,1]: c[1,1] + 17 delta[1,5] - 17 delta[5,1] >= 12
 LB[5,2,0]: c[2,0] - 69 delta[2,5] - 69 delta[5,2] >= -54.5
 LB[5,2,1]: c[2,1] + 17 delta[2,5] - 17 delta[5,2] >= 5.5
 LB[5,3,0]: c[3,0] - 59 delta[3,5] - 59 delta[5,3] >= -41
 LB[5,3,1]: c[3,1] + 17 delta[3,5] - 17 delta[5,3] >= 15
 LB[5,4,0]: c[4,0] - 46 delta[4,5] - 46 delta[5,4] >= -3.5
 LB[5,4,1]: c[4,1] + 17 delta[4,5] - 17 delta[5,4] >= 21
 LB[5,6,0]: c[6,0] + 55 delta[5,6] + 55 delta[6,5] >= 81
 LB[5,6,1]: c[6,1] - 17 delta[5,6] + 17 delta[6,5] >= 6.5
 LB[5,7,0]: c[7,0] + 49 delta[5,7] + 49 delta[7,5] >= 84
 LB[5,7,1]: c[7,1] - 17 delta[5,7] + 17 delta[7,5] >= 16
 LB[5,8,0]: c[8,0] + 69 delta[5,8] + 69 delta[8,5] >= 109
 LB[5,8,1]: c[8,1] - 17 delta[5,8] + 17 delta[8,5] >= 35.5
 LB[5,9,0]: c[9,0] + 69 delta[5,9] + 69 delta[9,5] >= 81
 LB[5,9,1]: c[9,1] - 17 delta[5,9] + 17 delta[9,5] >= 39
 LB[6,0,0]: c[0,0] - 39 delta[0,6] - 39 delta[6,0] >= -19
 LB[6,0,1]: c[0,1] + 13 delta[0,6] - 13 delta[6,0] >= 19
 LB[6,1,0]: c[1,0] - 51 delta[1,6] - 51 delta[6,1] >= -43
 LB[6,1,1]: c[1,1] + 13 delta[1,6] - 13 delta[6,1] >= 12
 LB[6,2,0]: c[2,0] - 51 delta[2,6] - 51 delta[6,2] >= -36.5
 LB[6,2,1]: c[2,1] + 13 delta[2,6] - 13 delta[6,2] >= 5.5
 LB[6,3,0]: c[3,0] - 41 delta[3,6] - 41 delta[6,3] >= -23
 LB[6,3,1]: c[3,1] + 13 delta[3,6] - 13 delta[6,3] >= 15
 LB[6,4,0]: c[4,0] - 38 delta[4,6] - 38 delta[6,4] >= 4.5
 LB[6,4,1]: c[4,1] + 13 delta[4,6] - 13 delta[6,4] >= 21
 LB[6,5,0]: c[5,0] - 51 delta[5,6] - 51 delta[6,5] >= -28
 LB[6,5,1]: c[5,1] + 13 delta[5,6] - 13 delta[6,5] >= 8.5
 LB[6,7,0]: c[7,0] + 38 delta[6,7] + 38 delta[7,6] >= 73
 LB[6,7,1]: c[7,1] - 13 delta[6,7] + 13 delta[7,6] >= 16
 LB[6,8,0]: c[8,0] + 51 delta[6,8] + 51 delta[8,6] >= 91
 LB[6,8,1]: c[8,1] - 13 delta[6,8] + 13 delta[8,6] >= 35.5
 LB[6,9,0]: c[9,0] + 51 delta[6,9] + 51 delta[9,6] >= 63
 LB[6,9,1]: c[9,1] - 13 delta[6,9] + 13 delta[9,6] >= 39
 LB[7,0,0]: c[0,0] - 62 delta[0,7] - 62 delta[7,0] >= -42
 LB[7,0,1]: c[0,1] + 39 delta[0,7] - 39 delta[7,0] >= 19
 LB[7,1,0]: c[1,0] - 74 delta[1,7] - 74 delta[7,1] >= -66
 LB[7,1,1]: c[1,1] + 48 delta[1,7] - 48 delta[7,1] >= 12
 LB[7,2,0]: c[2,0] - 74 delta[2,7] - 74 delta[7,2] >= -59.5
 LB[7,2,1]: c[2,1] + 48 delta[2,7] - 48 delta[7,2] >= 5.5
 LB[7,3,0]: c[3,0] - 64 delta[3,7] - 64 delta[7,3] >= -46
 LB[7,3,1]: c[3,1] + 48 delta[3,7] - 48 delta[7,3] >= 15
 LB[7,4,0]: c[4,0] - 50 delta[4,7] - 50 delta[7,4] >= -7.5
 LB[7,4,1]: c[4,1] + 48 delta[4,7] - 48 delta[7,4] >= 21
 LB[7,5,0]: c[5,0] - 74 delta[5,7] - 74 delta[7,5] >= -51
 LB[7,5,1]: c[5,1] + 48 delta[5,7] - 48 delta[7,5] >= 8.5
 LB[7,6,0]: c[6,0] - 60 delta[6,7] - 60 delta[7,6] >= -34
 LB[7,6,1]: c[6,1] + 48 delta[6,7] - 48 delta[7,6] >= 6.5
 LB[7,8,0]: c[8,0] + 74 delta[7,8] + 74 delta[8,7] >= 114
 LB[7,8,1]: c[8,1] - 48 delta[7,8] + 48 delta[8,7] >= 35.5
 LB[7,9,0]: c[9,0] + 74 delta[7,9] + 74 delta[9,7] >= 86
 LB[7,9,1]: c[9,1] - 32 delta[7,9] + 32 delta[9,7] >= 39
 LB[8,0,0]: c[0,0] - 109 delta[0,8] - 109 delta[8,0] >= -89
 LB[8,0,1]: c[0,1] + 71 delta[0,8] - 71 delta[8,0] >= 19
 LB[8,1,0]: c[1,0] - 121 delta[1,8] - 121 delta[8,1] >= -113
 LB[8,1,1]: c[1,1] + 71 delta[1,8] - 71 delta[8,1] >= 12
 LB[8,2,0]: c[2,0] - 121 delta[2,8] - 121 delta[8,2] >= -106.5
 LB[8,2,1]: c[2,1] + 71 delta[2,8] - 71 delta[8,2] >= 5.5
 LB[8,3,0]: c[3,0] - 111 delta[3,8] - 111 delta[8,3] >= -93
 LB[8,3,1]: c[3,1] + 71 delta[3,8] - 71 delta[8,3] >= 15
 LB[8,4,0]: c[4,0] - 95 delta[4,8] - 95 delta[8,4] >= -52.5
 LB[8,4,1]: c[4,1] + 71 delta[4,8] - 71 delta[8,4] >= 21
 LB[8,5,0]: c[5,0] - 121 delta[5,8] - 121 delta[8,5] >= -98
 LB[8,5,1]: c[5,1] + 71 delta[5,8] - 71 delta[8,5] >= 8.5
 LB[8,6,0]: c[6,0] - 107 delta[6,8] - 107 delta[8,6] >= -81
 LB[8,6,1]: c[6,1] + 71 delta[6,8] - 71 delta[8,6] >= 6.5
 LB[8,7,0]: c[7,0] - 101 delta[7,8] - 101 delta[8,7] >= -66
 LB[8,7,1]: c[7,1] + 71 delta[7,8] - 71 delta[8,7] >= 16
 LB[8,9,0]: c[9,0] + 121 delta[8,9] + 121 delta[9,8] >= 133
 LB[8,9,1]: c[9,1] - 71 delta[8,9] + 71 delta[9,8] >= 39
 LB[9,0,0]: c[0,0] - 24 delta[0,9] - 24 delta[9,0] >= -4
 LB[9,0,1]: c[0,1] + 55 delta[0,9] - 55 delta[9,0] >= 19
 LB[9,1,0]: c[1,0] - 24 delta[1,9] - 24 delta[9,1] >= -16
 LB[9,1,1]: c[1,1] + 55 delta[1,9] - 55 delta[9,1] >= 12
 LB[9,2,0]: c[2,0] - 24 delta[2,9] - 24 delta[9,2] >= -9.5
 LB[9,2,1]: c[2,1] + 55 delta[2,9] - 55 delta[9,2] >= 5.5
 LB[9,3,0]: c[3,0] - 24 delta[3,9] - 24 delta[9,3] >= -6
 LB[9,3,1]: c[3,1] + 55 delta[3,9] - 55 delta[9,3] >= 15
 LB[9,4,0]: c[4,0] - 24 delta[4,9] - 24 delta[9,4] >= 18.5
 LB[9,4,1]: c[4,1] + 55 delta[4,9] - 55 delta[9,4] >= 21
 LB[9,5,0]: c[5,0] - 24 delta[5,9] - 24 delta[9,5] >= -1
 LB[9,5,1]: c[5,1] + 55 delta[5,9] - 55 delta[9,5] >= 8.5
 LB[9,6,0]: c[6,0] - 24 delta[6,9] - 24 delta[9,6] >= 2
 LB[9,6,1]: c[6,1] + 55 delta[6,9] - 55 delta[9,6] >= 6.5
 LB[9,7,0]: c[7,0] - 24 delta[7,9] - 24 delta[9,7] >= 11
 LB[9,7,1]: c[7,1] + 55 delta[7,9] - 55 delta[9,7] >= 16
 LB[9,8,0]: c[8,0] - 24 delta[8,9] - 24 delta[9,8] >= 16
 LB[9,8,1]: c[8,1] + 55 delta[8,9] - 55 delta[9,8] >= 35.5
 UB[0,1,0]: c[0,0] - 31 delta[0,1] - 31 delta[1,0] <= 106
 UB[0,1,1]: c[0,1] + 24 delta[0,1] - 24 delta[1,0] <= 135
 UB[0,2,0]: c[0,0] - 29 delta[0,2] - 29 delta[2,0] <= 108
 UB[0,2,1]: c[0,1] + 11 delta[0,2] - 11 delta[2,0] <= 135
 UB[0,3,0]: c[0,0] - 26 delta[0,3] - 26 delta[3,0] <= 111
 UB[0,3,1]: c[0,1] + 30 delta[0,3] - 30 delta[3,0] <= 135
 UB[0,4,0]: c[0,0] - 80 delta[0,4] - 80 delta[4,0] <= 57
 UB[0,4,1]: c[0,1] + 42 delta[0,4] - 42 delta[4,0] <= 135
 UB[0,5,0]: c[0,0] - 69 delta[0,5] - 69 delta[5,0] <= 68
 UB[0,5,1]: c[0,1] + 17 delta[0,5] - 17 delta[5,0] <= 135
 UB[0,6,0]: c[0,0] - 51 delta[0,6] - 51 delta[6,0] <= 86
 UB[0,6,1]: c[0,1] + 13 delta[0,6] - 13 delta[6,0] <= 135
 UB[0,7,0]: c[0,0] - 74 delta[0,7] - 74 delta[7,0] <= 63
 UB[0,7,1]: c[0,1] + 48 delta[0,7] - 48 delta[7,0] <= 135
 UB[0,8,0]: c[0,0] - 121 delta[0,8] - 121 delta[8,0] <= 16
 UB[0,8,1]: c[0,1] + 71 delta[0,8] - 71 delta[8,0] <= 135
 UB[0,9,0]: c[0,0] - 24 delta[0,9] - 24 delta[9,0] <= 113
 UB[0,9,1]: c[0,1] + 55 delta[0,9] - 55 delta[9,0] <= 135
 UB[1,0,0]: c[1,0] + 16 delta[0,1] + 16 delta[1,0] <= 138
 UB[1,0,1]: c[1,1] - 29 delta[0,1] + 29 delta[1,0] <= 133
 UB[1,2,0]: c[1,0] - 29 delta[1,2] - 29 delta[2,1] <= 93
 UB[1,2,1]: c[1,1] + 11 delta[1,2] - 11 delta[2,1] <= 133
 UB[1,3,0]: c[1,0] - 16 delta[1,3] - 16 delta[3,1] <= 106
 UB[1,3,1]: c[1,1] + 30 delta[1,3] - 30 delta[3,1] <= 133
 UB[1,4,0]: c[1,0] - 65 delta[1,4] - 65 delta[4,1] <= 57
 UB[1,4,1]: c[1,1] + 42 delta[1,4] - 42 delta[4,1] <= 133
 UB[1,5,0]: c[1,0] - 69 delta[1,5] - 69 delta[5,1] <= 53
 UB[1,5,1]: c[1,1] + 17 delta[1,5] - 17 delta[5,1] <= 133
 UB[1,6,0]: c[1,0] - 37 delta[1,6] - 37 delta[6,1] <= 85
 UB[1,6,1]: c[1,1] + 13 delta[1,6] - 13 delta[6,1] <= 133
 UB[1,7,0]: c[1,0] - 59 delta[1,7] - 59 delta[7,1] <= 63
 UB[1,7,1]: c[1,1] + 48 delta[1,7] - 48 delta[7,1] <= 133
 UB[1,8,0]: c[1,0] - 121 delta[1,8] - 121 delta[8,1] <= 1
 UB[1,8,1]: c[1,1] + 71 delta[1,8] - 71 delta[8,1] <= 133
 UB[1,9,0]: c[1,0] - 24 delta[1,9] - 24 delta[9,1] <= 98
 UB[1,9,1]: c[1,1] + 55 delta[1,9] - 55 delta[9,1] <= 133
 UB[2,0,0]: c[2,0] + 28 delta[0,2] + 28 delta[2,0] <= 158.5
 UB[2,0,1]: c[2,1] - 29 delta[0,2] + 29 delta[2,0] <= 139.5
 UB[2,1,0]: c[2,0] + 31 delta[1,2] + 31 delta[2,1] <= 161.5
 UB[2,1,1]: c[2,1] - 24 delta[1,2] + 24 delta[2,1] <= 139.5
 UB[2,3,0]: c[2,0] - 26 delta[2,3] - 26 delta[3,2] <= 104.5
 UB[2,3,1]: c[2,1] + 30 delta[2,3] - 30 delta[3,2] <= 139.5
 UB[2,4,0]: c[2,0] - 80 delta[2,4] - 80 delta[4,2] <= 50.5
 UB[2,4,1]: c[2,1] + 42 delta[2,4] - 42 delta[4,2] <= 139.5
 UB[2,5,0]: c[2,0] - 69 delta[2,5] - 69 delta[5,2] <= 61.5
 UB[2,5,1]: c[2,1] + 17 delta[2,5] - 17 delta[5,2] <= 139.5
 UB[2,6,0]: c[2,0] - 51 delta[2,6] - 51 delta[6,2] <= 79.5
 UB[2,6,1]: c[2,1] + 13 delta[2,6] - 13 delta[6,2] <= 139.5
 UB[2,7,0]: c[2,0] - 74 delta[2,7] - 74 delta[7,2] <= 56.5
 UB[2,7,1]: c[2,1] + 48 delta[2,7] - 48 delta[7,2] <= 139.5
 UB[2,8,0]: c[2,0] - 121 delta[2,8] - 121 delta[8,2] <= 9.5
 UB[2,8,1]: c[2,1] + 71 delta[2,8] - 71 delta[8,2] <= 139.5
 UB[2,9,0]: c[2,0] - 24 delta[2,9] - 24 delta[9,2] <= 106.5
 UB[2,9,1]: c[2,1] + 55 delta[2,9] - 55 delta[9,2] <= 139.5
 UB[3,0,0]: c[3,0] + 28 delta[0,3] + 28 delta[3,0] <= 165
 UB[3,0,1]: c[3,1] - 29 delta[0,3] + 29 delta[3,0] <= 130
 UB[3,1,0]: c[3,0] + 31 delta[1,3] + 31 delta[3,1] <= 168
 UB[3,1,1]: c[3,1] - 24 delta[1,3] + 24 delta[3,1] <= 130
 UB[3,2,0]: c[3,0] + 29 delta[2,3] + 29 delta[3,2] <= 166
 UB[3,2,1]: c[3,1] - 11 delta[2,3] + 11 delta[3,2] <= 130
 UB[3,4,0]: c[3,0] - 80 delta[3,4] - 80 delta[4,3] <= 57
 UB[3,4,1]: c[3,1] + 42 delta[3,4] - 42 delta[4,3] <= 130
 UB[3,5,0]: c[3,0] - 69 delta[3,5] - 69 delta[5,3] <= 68
 UB[3,5,1]: c[3,1] + 17 delta[3,5] - 17 delta[5,3] <= 130
 UB[3,6,0]: c[3,0] - 51 delta[3,6] - 51 delta[6,3] <= 86
 UB[3,6,1]: c[3,1] + 13 delta[3,6] - 13 delta[6,3] <= 130
 UB[3,7,0]: c[3,0] - 74 delta[3,7] - 74 delta[7,3] <= 63
 UB[3,7,1]: c[3,1] + 48 delta[3,7] - 48 delta[7,3] <= 130
 UB[3,8,0]: c[3,0] - 121 delta[3,8] - 121 delta[8,3] <= 16
 UB[3,8,1]: c[3,1] + 71 delta[3,8] - 71 delta[8,3] <= 130
 UB[3,9,0]: c[3,0] - 24 delta[3,9] - 24 delta[9,3] <= 113
 UB[3,9,1]: c[3,1] + 55 delta[3,9] - 55 delta[9,3] <= 130
 UB[4,0,0]: c[4,0] + 16 delta[0,4] + 16 delta[4,0] <= 123.5
 UB[4,0,1]: c[4,1] - 29 delta[0,4] + 29 delta[4,0] <= 124
 UB[4,1,0]: c[4,0] + 31 delta[1,4] + 31 delta[4,1] <= 138.5
 UB[4,1,1]: c[4,1] - 24 delta[1,4] + 24 delta[4,1] <= 124
 UB[4,2,0]: c[4,0] + 29 delta[2,4] + 29 delta[4,2] <= 136.5
 UB[4,2,1]: c[4,1] - 11 delta[2,4] + 11 delta[4,2] <= 124
 UB[4,3,0]: c[4,0] + 16 delta[3,4] + 16 delta[4,3] <= 123.5
 UB[4,3,1]: c[4,1] - 30 delta[3,4] + 30 delta[4,3] <= 124
 UB[4,5,0]: c[4,0] - 69 delta[4,5] - 69 delta[5,4] <= 38.5
 UB[4,5,1]: c[4,1] + 17 delta[4,5] - 17 delta[5,4] <= 124
 UB[4,6,0]: c[4,0] - 37 delta[4,6] - 37 delta[6,4] <= 70.5
 UB[4,6,1]: c[4,1] + 13 delta[4,6] - 13 delta[6,4] <= 124
 UB[4,7,0]: c[4,0] - 54 delta[4,7] - 54 delta[7,4] <= 53.5
 UB[4,7,1]: c[4,1] + 48 delta[4,7] - 48 delta[7,4] <= 124
 UB[4,8,0]: c[4,0] - 121 delta[4,8] - 121 delta[8,4] <= -13.5
 UB[4,8,1]: c[4,1] + 71 delta[4,8] - 71 delta[8,4] <= 124
 UB[4,9,0]: c[4,0] - 24 delta[4,9] - 24 delta[9,4] <= 83.5
 UB[4,9,1]: c[4,1] + 55 delta[4,9] - 55 delta[9,4] <= 124
 UB[5,0,0]: c[5,0] + 16 delta[0,5] + 16 delta[5,0] <= 115
 UB[5,0,1]: c[5,1] - 29 delta[0,5] + 29 delta[5,0] <= 136.5
 UB[5,1,0]: c[5,0] + 31 delta[1,5] + 31 delta[5,1] <= 130
 UB[5,1,1]: c[5,1] - 24 delta[1,5] + 24 delta[5,1] <= 136.5
 UB[5,2,0]: c[5,0] + 29 delta[2,5] + 29 delta[5,2] <= 128
 UB[5,2,1]: c[5,1] - 11 delta[2,5] + 11 delta[5,2] <= 136.5
 UB[5,3,0]: c[5,0] + 16 delta[3,5] + 16 delta[5,3] <= 115
 UB[5,3,1]: c[5,1] - 30 delta[3,5] + 30 delta[5,3] <= 136.5
 UB[5,4,0]: c[5,0] + 57 delta[4,5] + 57 delta[5,4] <= 156
 UB[5,4,1]: c[5,1] - 42 delta[4,5] + 42 delta[5,4] <= 136.5
 UB[5,6,0]: c[5,0] - 37 delta[5,6] - 37 delta[6,5] <= 62
 UB[5,6,1]: c[5,1] + 13 delta[5,6] - 13 delta[6,5] <= 136.5
 UB[5,7,0]: c[5,0] - 54 delta[5,7] - 54 delta[7,5] <= 45
 UB[5,7,1]: c[5,1] + 48 delta[5,7] - 48 delta[7,5] <= 136.5
 UB[5,8,0]: c[5,0] - 121 delta[5,8] - 121 delta[8,5] <= -22
 UB[5,8,1]: c[5,1] + 71 delta[5,8] - 71 delta[8,5] <= 136.5
 UB[5,9,0]: c[5,0] - 24 delta[5,9] - 24 delta[9,5] <= 75
 UB[5,9,1]: c[5,1] + 55 delta[5,9] - 55 delta[9,5] <= 136.5
 UB[6,0,0]: c[6,0] + 16 delta[0,6] + 16 delta[6,0] <= 136
 UB[6,0,1]: c[6,1] - 29 delta[0,6] + 29 delta[6,0] <= 138.5
 UB[6,1,0]: c[6,0] + 31 delta[1,6] + 31 delta[6,1] <= 151
 UB[6,1,1]: c[6,1] - 24 delta[1,6] + 24 delta[6,1] <= 138.5
 UB[6,2,0]: c[6,0] + 29 delta[2,6] + 29 delta[6,2] <= 149
 UB[6,2,1]: c[6,1] - 11 delta[2,6] + 11 delta[6,2] <= 138.5
 UB[6,3,0]: c[6,0] + 16 delta[3,6] + 16 delta[6,3] <= 136
 UB[6,3,1]: c[6,1] - 30 delta[3,6] + 30 delta[6,3] <= 138.5
 UB[6,4,0]: c[6,0] + 67 delta[4,6] + 67 delta[6,4] <= 187
 UB[6,4,1]: c[6,1] - 42 delta[4,6] + 42 delta[6,4] <= 138.5
 UB[6,5,0]: c[6,0] + 69 delta[5,6] + 69 delta[6,5] <= 189
 UB[6,5,1]: c[6,1] - 17 delta[5,6] + 17 delta[6,5] <= 138.5
 UB[6,7,0]: c[6,0] - 61 delta[6,7] - 61 delta[7,6] <= 59
 UB[6,7,1]: c[6,1] + 48 delta[6,7] - 48 delta[7,6] <= 138.5
 UB[6,8,0]: c[6,0] - 121 delta[6,8] - 121 delta[8,6] <= -1
 UB[6,8,1]: c[6,1] + 71 delta[6,8] - 71 delta[8,6] <= 138.5
 UB[6,9,0]: c[6,0] - 24 delta[6,9] - 24 delta[9,6] <= 96
 UB[6,9,1]: c[6,1] + 55 delta[6,9] - 55 delta[9,6] <= 138.5
 UB[7,0,0]: c[7,0] + 16 delta[0,7] + 16 delta[7,0] <= 122
 UB[7,0,1]: c[7,1] - 20 delta[0,7] + 20 delta[7,0] <= 113
 UB[7,1,0]: c[7,0] + 31 delta[1,7] + 31 delta[7,1] <= 137
 UB[7,1,1]: c[7,1] - 24 delta[1,7] + 24 delta[7,1] <= 113
 UB[7,2,0]: c[7,0] + 29 delta[2,7] + 29 delta[7,2] <= 135
 UB[7,2,1]: c[7,1] - 11 delta[2,7] + 11 delta[7,2] <= 113
 UB[7,3,0]: c[7,0] + 16 delta[3,7] + 16 delta[7,3] <= 122
 UB[7,3,1]: c[7,1] - 30 delta[3,7] + 30 delta[7,3] <= 113
 UB[7,4,0]: c[7,0] + 56 delta[4,7] + 56 delta[7,4] <= 162
 UB[7,4,1]: c[7,1] - 42 delta[4,7] + 42 delta[7,4] <= 113
 UB[7,5,0]: c[7,0] + 69 delta[5,7] + 69 delta[7,5] <= 175
 UB[7,5,1]: c[7,1] - 17 delta[5,7] + 17 delta[7,5] <= 113
 UB[7,6,0]: c[7,0] + 37 delta[6,7] + 37 delta[7,6] <= 143
 UB[7,6,1]: c[7,1] - 13 delta[6,7] + 13 delta[7,6] <= 113
 UB[7,8,0]: c[7,0] - 121 delta[7,8] - 121 delta[8,7] <= -15
 UB[7,8,1]: c[7,1] + 71 delta[7,8] - 71 delta[8,7] <= 113
 UB[7,9,0]: c[7,0] - 24 delta[7,9] - 24 delta[9,7] <= 82
 UB[7,9,1]: c[7,1] + 39 delta[7,9] - 39 delta[9,7] <= 113
 UB[8,0,0]: c[8,0] + 16 delta[0,8] + 16 delta[8,0] <= 80
 UB[8,0,1]: c[8,1] - 29 delta[0,8] + 29 delta[8,0] <= 109.5
 UB[8,1,0]: c[8,0] + 31 delta[1,8] + 31 delta[8,1] <= 95
 UB[8,1,1]: c[8,1] - 24 delta[1,8] + 24 delta[8,1] <= 109.5
 UB[8,2,0]: c[8,0] + 29 delta[2,8] + 29 delta[8,2] <= 93
 UB[8,2,1]: c[8,1] - 11 delta[2,8] + 11 delta[8,2] <= 109.5
 UB[8,3,0]: c[8,0] + 16 delta[3,8] + 16 delta[8,3] <= 80
 UB[8,3,1]: c[8,1] - 30 delta[3,8] + 30 delta[8,3] <= 109.5
 UB[8,4,0]: c[8,0] + 54 delta[4,8] + 54 delta[8,4] <= 118
 UB[8,4,1]: c[8,1] - 42 delta[4,8] + 42 delta[8,4] <= 109.5
 UB[8,5,0]: c[8,0] + 69 delta[5,8] + 69 delta[8,5] <= 133
 UB[8,5,1]: c[8,1] - 17 delta[5,8] + 17 delta[8,5] <= 109.5
 UB[8,6,0]: c[8,0] + 37 delta[6,8] + 37 delta[8,6] <= 101
 UB[8,6,1]: c[8,1] - 13 delta[6,8] + 13 delta[8,6] <= 109.5
 UB[8,7,0]: c[8,0] + 54 delta[7,8] + 54 delta[8,7] <= 118
 UB[8,7,1]: c[8,1] - 48 delta[7,8] + 48 delta[8,7] <= 109.5
 UB[8,9,0]: c[8,0] - 24 delta[8,9] - 24 delta[9,8] <= 40
 UB[8,9,1]: c[8,1] + 55 delta[8,9] - 55 delta[9,8] <= 109.5
 UB[9,0,0]: c[9,0] + 28 delta[0,9] + 28 delta[9,0] <= 161
 UB[9,0,1]: c[9,1] - 29 delta[0,9] + 29 delta[9,0] <= 129
 UB[9,1,0]: c[9,0] + 31 delta[1,9] + 31 delta[9,1] <= 164
 UB[9,1,1]: c[9,1] - 24 delta[1,9] + 24 delta[9,1] <= 129
 UB[9,2,0]: c[9,0] + 29 delta[2,9] + 29 delta[9,2] <= 162
 UB[9,2,1]: c[9,1] - 11 delta[2,9] + 11 delta[9,2] <= 129
 UB[9,3,0]: c[9,0] + 26 delta[3,9] + 26 delta[9,3] <= 159
 UB[9,3,1]: c[9,1] - 30 delta[3,9] + 30 delta[9,3] <= 129
 UB[9,4,0]: c[9,0] + 80 delta[4,9] + 80 delta[9,4] <= 213
 UB[9,4,1]: c[9,1] - 42 delta[4,9] + 42 delta[9,4] <= 129
 UB[9,5,0]: c[9,0] + 69 delta[5,9] + 69 delta[9,5] <= 202
 UB[9,5,1]: c[9,1] - 17 delta[5,9] + 17 delta[9,5] <= 129
 UB[9,6,0]: c[9,0] + 51 delta[6,9] + 51 delta[9,6] <= 184
 UB[9,6,1]: c[9,1] - 13 delta[6,9] + 13 delta[9,6] <= 129
 UB[9,7,0]: c[9,0] + 74 delta[7,9] + 74 delta[9,7] <= 207
 UB[9,7,1]: c[9,1] - 48 delta[7,9] + 48 delta[9,7] <= 129
 UB[9,8,0]: c[9,0] + 121 delta[8,9] + 121 delta[9,8] <= 254
 UB[9,8,1]: c[9,1] - 71 delta[8,9] + 71 delta[9,8] <= 129
 PM[0,1,0]: - c[0,0] + c[1,0] + 145 delta[0,1] + 145 delta[1,0] >= 16
 PM[0,1,1]: - c[0,1] + c[1,1] - 145 delta[0,1] + 145 delta[1,0] >= -123
 PM[0,2,0]: - c[0,0] + c[2,0] + 145 delta[0,2] + 145 delta[2,0] >= 22.5
 PM[0,2,1]: - c[0,1] + c[2,1] - 145 delta[0,2] + 145 delta[2,0] >= -129.5
 PM[0,3,0]: - c[0,0] + c[3,0] + 145 delta[0,3] + 145 delta[3,0] >= 26
 PM[0,3,1]: - c[0,1] + c[3,1] - 145 delta[0,3] + 145 delta[3,0] >= -120
 PM[0,4,0]: - c[0,0] + c[4,0] + 145 delta[0,4] + 145 delta[4,0] >= 50.5
 PM[0,4,1]: - c[0,1] + c[4,1] - 145 delta[0,4] + 145 delta[4,0] >= -114
 PM[0,5,0]: - c[0,0] + c[5,0] + 145 delta[0,5] + 145 delta[5,0] >= 31
 PM[0,5,1]: - c[0,1] + c[5,1] - 145 delta[0,5] + 145 delta[5,0] >= -126.5
 PM[0,6,0]: - c[0,0] + c[6,0] + 145 delta[0,6] + 145 delta[6,0] >= 34
 PM[0,6,1]: - c[0,1] + c[6,1] - 145 delta[0,6] + 145 delta[6,0] >= -128.5
 PM[0,7,0]: - c[0,0] + c[7,0] + 145 delta[0,7] + 145 delta[7,0] >= 43
 PM[0,7,1]: - c[0,1] + c[7,1] - 145 delta[0,7] + 145 delta[7,0] >= -119
 PM[0,8,0]: - c[0,0] + c[8,0] + 145 delta[0,8] + 145 delta[8,0] >= 48
 PM[0,8,1]: - c[0,1] + c[8,1] - 145 delta[0,8] + 145 delta[8,0] >= -99.5
 PM[0,9,0]: - c[0,0] + c[9,0] + 145 delta[0,9] + 145 delta[9,0] >= 20
 PM[0,9,1]: - c[0,1] + c[9,1] - 145 delta[0,9] + 145 delta[9,0] >= -96
 PM[1,0,0]: c[0,0] - c[1,0] - 133 delta[0,1] - 133 delta[1,0] >= -235
 PM[1,0,1]: c[0,1] - c[1,1] + 145 delta[0,1] - 145 delta[1,0] >= -114
 PM[1,2,0]: - c[1,0] + c[2,0] + 145 delta[1,2] + 145 delta[2,1] >= 37.5
 PM[1,2,1]: - c[1,1] + c[2,1] - 145 delta[1,2] + 145 delta[2,1] >= -127.5
 PM[1,3,0]: - c[1,0] + c[3,0] + 135 delta[1,3] + 135 delta[3,1] >= 31
 PM[1,3,1]: - c[1,1] + c[3,1] - 145 delta[1,3] + 145 delta[3,1] >= -118
 PM[1,4,0]: - c[1,0] + c[4,0] + 130 delta[1,4] + 130 delta[4,1] >= 50.5
 PM[1,4,1]: - c[1,1] + c[4,1] - 145 delta[1,4] + 145 delta[4,1] >= -112
 PM[1,5,0]: - c[1,0] + c[5,0] + 145 delta[1,5] + 145 delta[5,1] >= 46
 PM[1,5,1]: - c[1,1] + c[5,1] - 145 delta[1,5] + 145 delta[5,1] >= -124.5
 PM[1,6,0]: - c[1,0] + c[6,0] + 131 delta[1,6] + 131 delta[6,1] >= 35
 PM[1,6,1]: - c[1,1] + c[6,1] - 145 delta[1,6] + 145 delta[6,1] >= -126.5
 PM[1,7,0]: - c[1,0] + c[7,0] + 130 delta[1,7] + 130 delta[7,1] >= 43
 PM[1,7,1]: - c[1,1] + c[7,1] - 145 delta[1,7] + 145 delta[7,1] >= -117
 PM[1,8,0]: - c[1,0] + c[8,0] + 145 delta[1,8] + 145 delta[8,1] >= 63
 PM[1,8,1]: - c[1,1] + c[8,1] - 145 delta[1,8] + 145 delta[8,1] >= -97.5
 PM[1,9,0]: - c[1,0] + c[9,0] + 145 delta[1,9] + 145 delta[9,1] >= 35
 PM[1,9,1]: - c[1,1] + c[9,1] - 145 delta[1,9] + 145 delta[9,1] >= -94
 PM[2,0,0]: c[0,0] - c[2,0] - 145 delta[0,2] - 145 delta[2,0] >= -255.5
 PM[2,0,1]: c[0,1] - c[2,1] + 145 delta[0,2] - 145 delta[2,0] >= -120.5
 PM[2,1,0]: c[1,0] - c[2,0] - 145 delta[1,2] - 145 delta[2,1] >= -267.5
 PM[2,1,1]: c[1,1] - c[2,1] + 145 delta[1,2] - 145 delta[2,1] >= -127.5
 PM[2,3,0]: - c[2,0] + c[3,0] + 145 delta[2,3] + 145 delta[3,2] >= 32.5
 PM[2,3,1]: - c[2,1] + c[3,1] - 145 delta[2,3] + 145 delta[3,2] >= -124.5
 PM[2,4,0]: - c[2,0] + c[4,0] + 145 delta[2,4] + 145 delta[4,2] >= 57
 PM[2,4,1]: - c[2,1] + c[4,1] - 145 delta[2,4] + 145 delta[4,2] >= -118.5
 PM[2,5,0]: - c[2,0] + c[5,0] + 145 delta[2,5] + 145 delta[5,2] >= 37.5
 PM[2,5,1]: - c[2,1] + c[5,1] - 145 delta[2,5] + 145 delta[5,2] >= -131
 PM[2,6,0]: - c[2,0] + c[6,0] + 145 delta[2,6] + 145 delta[6,2] >= 40.5
 PM[2,6,1]: - c[2,1] + c[6,1] - 145 delta[2,6] + 145 delta[6,2] >= -133
 PM[2,7,0]: - c[2,0] + c[7,0] + 145 delta[2,7] + 145 delta[7,2] >= 49.5
 PM[2,7,1]: - c[2,1] + c[7,1] - 145 delta[2,7] + 145 delta[7,2] >= -123.5
 PM[2,8,0]: - c[2,0] + c[8,0] + 145 delta[2,8] + 145 delta[8,2] >= 54.5
 PM[2,8,1]: - c[2,1] + c[8,1] - 145 delta[2,8] + 145 delta[8,2] >= -104
 PM[2,9,0]: - c[2,0] + c[9,0] + 145 delta[2,9] + 145 delta[9,2] >= 26.5
 PM[2,9,1]: - c[2,1] + c[9,1] - 145 delta[2,9] + 145 delta[9,2] >= -100.5
 PM[3,0,0]: c[0,0] - c[3,0] - 145 delta[0,3] - 145 delta[3,0] >= -262
 PM[3,0,1]: c[0,1] - c[3,1] + 145 delta[0,3] - 145 delta[3,0] >= -111
 PM[3,1,0]: c[1,0] - c[3,0] - 145 delta[1,3] - 145 delta[3,1] >= -274
 PM[3,1,1]: c[1,1] - c[3,1] + 145 delta[1,3] - 145 delta[3,1] >= -118
 PM[3,2,0]: c[2,0] - c[3,0] - 145 delta[2,3] - 145 delta[3,2] >= -267.5
 PM[3,2,1]: c[2,1] - c[3,1] + 145 delta[2,3] - 145 delta[3,2] >= -124.5
 PM[3,4,0]: - c[3,0] + c[4,0] + 145 delta[3,4] + 145 delta[4,3] >= 50.5
 PM[3,4,1]: - c[3,1] + c[4,1] - 145 delta[3,4] + 145 delta[4,3] >= -109
 PM[3,5,0]: - c[3,0] + c[5,0] + 145 delta[3,5] + 145 delta[5,3] >= 31
 PM[3,5,1]: - c[3,1] + c[5,1] - 145 delta[3,5] + 145 delta[5,3] >= -121.5
 PM[3,6,0]: - c[3,0] + c[6,0] + 145 delta[3,6] + 145 delta[6,3] >= 34
 PM[3,6,1]: - c[3,1] + c[6,1] - 145 delta[3,6] + 145 delta[6,3] >= -123.5
 PM[3,7,0]: - c[3,0] + c[7,0] + 145 delta[3,7] + 145 delta[7,3] >= 43
 PM[3,7,1]: - c[3,1] + c[7,1] - 145 delta[3,7] + 145 delta[7,3] >= -114
 PM[3,8,0]: - c[3,0] + c[8,0] + 145 delta[3,8] + 145 delta[8,3] >= 48
 PM[3,8,1]: - c[3,1] + c[8,1] - 145 delta[3,8] + 145 delta[8,3] >= -94.5
 PM[3,9,0]: - c[3,0] + c[9,0] + 145 delta[3,9] + 145 delta[9,3] >= 20
 PM[3,9,1]: - c[3,1] + c[9,1] - 145 delta[3,9] + 145 delta[9,3] >= -91
 PM[4,0,0]: c[0,0] - c[4,0] - 133 delta[0,4] - 133 delta[4,0] >= -220.5
 PM[4,0,1]: c[0,1] - c[4,1] + 145 delta[0,4] - 145 delta[4,0] >= -105
 PM[4,1,0]: c[1,0] - c[4,0] - 145 delta[1,4] - 145 delta[4,1] >= -244.5
 PM[4,1,1]: c[1,1] - c[4,1] + 145 delta[1,4] - 145 delta[4,1] >= -112
 PM[4,2,0]: c[2,0] - c[4,0] - 145 delta[2,4] - 145 delta[4,2] >= -238
 PM[4,2,1]: c[2,1] - c[4,1] + 145 delta[2,4] - 145 delta[4,2] >= -118.5
 PM[4,3,0]: c[3,0] - c[4,0] - 135 delta[3,4] - 135 delta[4,3] >= -224.5
 PM[4,3,1]: c[3,1] - c[4,1] + 145 delta[3,4] - 145 delta[4,3] >= -109
 PM[4,5,0]: - c[4,0] + c[5,0] + 145 delta[4,5] + 145 delta[5,4] >= 60.5
 PM[4,5,1]: - c[4,1] + c[5,1] - 145 delta[4,5] + 145 delta[5,4] >= -115.5
 PM[4,6,0]: - c[4,0] + c[6,0] + 131 delta[4,6] + 131 delta[6,4] >= 49.5
 PM[4,6,1]: - c[4,1] + c[6,1] - 145 delta[4,6] + 145 delta[6,4] >= -117.5
 PM[4,7,0]: - c[4,0] + c[7,0] + 125 delta[4,7] + 125 delta[7,4] >= 52.5
 PM[4,7,1]: - c[4,1] + c[7,1] - 145 delta[4,7] + 145 delta[7,4] >= -108
 PM[4,8,0]: - c[4,0] + c[8,0] + 145 delta[4,8] + 145 delta[8,4] >= 77.5
 PM[4,8,1]: - c[4,1] + c[8,1] - 145 delta[4,8] + 145 delta[8,4] >= -88.5
 PM[4,9,0]: - c[4,0] + c[9,0] + 145 delta[4,9] + 145 delta[9,4] >= 49.5
 PM[4,9,1]: - c[4,1] + c[9,1] - 145 delta[4,9] + 145 delta[9,4] >= -85
 PM[5,0,0]: c[0,0] - c[5,0] - 133 delta[0,5] - 133 delta[5,0] >= -212
 PM[5,0,1]: c[0,1] - c[5,1] + 145 delta[0,5] - 145 delta[5,0] >= -117.5
 PM[5,1,0]: c[1,0] - c[5,0] - 145 delta[1,5] - 145 delta[5,1] >= -236
 PM[5,1,1]: c[1,1] - c[5,1] + 145 delta[1,5] - 145 delta[5,1] >= -124.5
 PM[5,2,0]: c[2,0] - c[5,0] - 145 delta[2,5] - 145 delta[5,2] >= -229.5
 PM[5,2,1]: c[2,1] - c[5,1] + 145 delta[2,5] - 145 delta[5,2] >= -131
 PM[5,3,0]: c[3,0] - c[5,0] - 135 delta[3,5] - 135 delta[5,3] >= -216
 PM[5,3,1]: c[3,1] - c[5,1] + 145 delta[3,5] - 145 delta[5,3] >= -121.5
 PM[5,4,0]: c[4,0] - c[5,0] - 122 delta[4,5] - 122 delta[5,4] >= -178.5
 PM[5,4,1]: c[4,1] - c[5,1] + 145 delta[4,5] - 145 delta[5,4] >= -115.5
 PM[5,6,0]: - c[5,0] + c[6,0] + 131 delta[5,6] + 131 delta[6,5] >= 58
 PM[5,6,1]: - c[5,1] + c[6,1] - 145 delta[5,6] + 145 delta[6,5] >= -130
 PM[5,7,0]: - c[5,0] + c[7,0] + 125 delta[5,7] + 125 delta[7,5] >= 61
 PM[5,7,1]: - c[5,1] + c[7,1] - 145 delta[5,7] + 145 delta[7,5] >= -120.5
 PM[5,8,0]: - c[5,0] + c[8,0] + 145 delta[5,8] + 145 delta[8,5] >= 86
 PM[5,8,1]: - c[5,1] + c[8,1] - 145 delta[5,8] + 145 delta[8,5] >= -101
 PM[5,9,0]: - c[5,0] + c[9,0] + 145 delta[5,9] + 145 delta[9,5] >= 58
 PM[5,9,1]: - c[5,1] + c[9,1] - 145 delta[5,9] + 145 delta[9,5] >= -97.5
 PM[6,0,0]: c[0,0] - c[6,0] - 133 delta[0,6] - 133 delta[6,0] >= -233
 PM[6,0,1]: c[0,1] - c[6,1] + 145 delta[0,6] - 145 delta[6,0] >= -119.5
 PM[6,1,0]: c[1,0] - c[6,0] - 145 delta[1,6] - 145 delta[6,1] >= -257
 PM[6,1,1]: c[1,1] - c[6,1] + 145 delta[1,6] - 145 delta[6,1] >= -126.5
 PM[6,2,0]: c[2,0] - c[6,0] - 145 delta[2,6] - 145 delta[6,2] >= -250.5
 PM[6,2,1]: c[2,1] - c[6,1] + 145 delta[2,6] - 145 delta[6,2] >= -133
 PM[6,3,0]: c[3,0] - c[6,0] - 135 delta[3,6] - 135 delta[6,3] >= -237
 PM[6,3,1]: c[3,1] - c[6,1] + 145 delta[3,6] - 145 delta[6,3] >= -123.5
 PM[6,4,0]: c[4,0] - c[6,0] - 132 delta[4,6] - 132 delta[6,4] >= -209.5
 PM[6,4,1]: c[4,1] - c[6,1] + 145 delta[4,6] - 145 delta[6,4] >= -117.5
 PM[6,5,0]: c[5,0] - c[6,0] - 145 delta[5,6] - 145 delta[6,5] >= -242
 PM[6,5,1]: c[5,1] - c[6,1] + 145 delta[5,6] - 145 delta[6,5] >= -130
 PM[6,7,0]: - c[6,0] + c[7,0] + 132 delta[6,7] + 132 delta[7,6] >= 47
 PM[6,7,1]: - c[6,1] + c[7,1] - 145 delta[6,7] + 145 delta[7,6] >= -122.5
 PM[6,8,0]: - c[6,0] + c[8,0] + 145 delta[6,8] + 145 delta[8,6] >= 65
 PM[6,8,1]: - c[6,1] + c[8,1] - 145 delta[6,8] + 145 delta[8,6] >= -103
 PM[6,9,0]: - c[6,0] + c[9,0] + 145 delta[6,9] + 145 delta[9,6] >= 37
 PM[6,9,1]: - c[6,1] + c[9,1] - 145 delta[6,9] + 145 delta[9,6] >= -99.5
 PM[7,0,0]: c[0,0] - c[7,0] - 133 delta[0,7] - 133 delta[7,0] >= -219
 PM[7,0,1]: c[0,1] - c[7,1] + 136 delta[0,7] - 136 delta[7,0] >= -94
 PM[7,1,0]: c[1,0] - c[7,0] - 145 delta[1,7] - 145 delta[7,1] >= -243
 PM[7,1,1]: c[1,1] - c[7,1] + 145 delta[1,7] - 145 delta[7,1] >= -101
 PM[7,2,0]: c[2,0] - c[7,0] - 145 delta[2,7] - 145 delta[7,2] >= -236.5
 PM[7,2,1]: c[2,1] - c[7,1] + 145 delta[2,7] - 145 delta[7,2] >= -107.5
 PM[7,3,0]: c[3,0] - c[7,0] - 135 delta[3,7] - 135 delta[7,3] >= -223
 PM[7,3,1]: c[3,1] - c[7,1] + 145 delta[3,7] - 145 delta[7,3] >= -98
 PM[7,4,0]: c[4,0] - c[7,0] - 121 delta[4,7] - 121 delta[7,4] >= -184.5
 PM[7,4,1]: c[4,1] - c[7,1] + 145 delta[4,7] - 145 delta[7,4] >= -92
 PM[7,5,0]: c[5,0] - c[7,0] - 145 delta[5,7] - 145 delta[7,5] >= -228
 PM[7,5,1]: c[5,1] - c[7,1] + 145 delta[5,7] - 145 delta[7,5] >= -104.5
 PM[7,6,0]: c[6,0] - c[7,0] - 131 delta[6,7] - 131 delta[7,6] >= -211
 PM[7,6,1]: c[6,1] - c[7,1] + 145 delta[6,7] - 145 delta[7,6] >= -106.5
 PM[7,8,0]: - c[7,0] + c[8,0] + 145 delta[7,8] + 145 delta[8,7] >= 79
 PM[7,8,1]: - c[7,1] + c[8,1] - 145 delta[7,8] + 145 delta[8,7] >= -77.5
 PM[7,9,0]: - c[7,0] + c[9,0] + 145 delta[7,9] + 145 delta[9,7] >= 51
 PM[7,9,1]: - c[7,1] + c[9,1] - 129 delta[7,9] + 129 delta[9,7] >= -74
 PM[8,0,0]: c[0,0] - c[8,0] - 133 delta[0,8] - 133 delta[8,0] >= -177
 PM[8,0,1]: c[0,1] - c[8,1] + 145 delta[0,8] - 145 delta[8,0] >= -90.5
 PM[8,1,0]: c[1,0] - c[8,0] - 145 delta[1,8] - 145 delta[8,1] >= -201
 PM[8,1,1]: c[1,1] - c[8,1] + 145 delta[1,8] - 145 delta[8,1] >= -97.5
 PM[8,2,0]: c[2,0] - c[8,0] - 145 delta[2,8] - 145 delta[8,2] >= -194.5
 PM[8,2,1]: c[2,1] - c[8,1] + 145 delta[2,8] - 145 delta[8,2] >= -104
 PM[8,3,0]: c[3,0] - c[8,0] - 135 delta[3,8] - 135 delta[8,3] >= -181
 PM[8,3,1]: c[3,1] - c[8,1] + 145 delta[3,8] - 145 delta[8,3] >= -94.5
 PM[8,4,0]: c[4,0] - c[8,0] - 119 delta[4,8] - 119 delta[8,4] >= -140.5
 PM[8,4,1]: c[4,1] - c[8,1] + 145 delta[4,8] - 145 delta[8,4] >= -88.5
 PM[8,5,0]: c[5,0] - c[8,0] - 145 delta[5,8] - 145 delta[8,5] >= -186
 PM[8,5,1]: c[5,1] - c[8,1] + 145 delta[5,8] - 145 delta[8,5] >= -101
 PM[8,6,0]: c[6,0] - c[8,0] - 131 delta[6,8] - 131 delta[8,6] >= -169
 PM[8,6,1]: c[6,1] - c[8,1] + 145 delta[6,8] - 145 delta[8,6] >= -103
 PM[8,7,0]: c[7,0] - c[8,0] - 125 delta[7,8] - 125 delta[8,7] >= -154
 PM[8,7,1]: c[7,1] - c[8,1] + 145 delta[7,8] - 145 delta[8,7] >= -93.5
 PM[8,9,0]: - c[8,0] + c[9,0] + 145 delta[8,9] + 145 delta[9,8] >= 93
 PM[8,9,1]: - c[8,1] + c[9,1] - 145 delta[8,9] + 145 delta[9,8] >= -70.5
 PM[9,0,0]: c[0,0] - c[9,0] - 145 delta[0,9] - 145 delta[9,0] >= -258
 PM[9,0,1]: c[0,1] - c[9,1] + 145 delta[0,9] - 145 delta[9,0] >= -110
 PM[9,1,0]: c[1,0] - c[9,0] - 145 delta[1,9] - 145 delta[9,1] >= -270
 PM[9,1,1]: c[1,1] - c[9,1] + 145 delta[1,9] - 145 delta[9,1] >= -117
 PM[9,2,0]: c[2,0] - c[9,0] - 145 delta[2,9] - 145 delta[9,2] >= -263.5
 PM[9,2,1]: c[2,1] - c[9,1] + 145 delta[2,9] - 145 delta[9,2] >= -123.5
 PM[9,3,0]: c[3,0] - c[9,0] - 145 delta[3,9] - 145 delta[9,3] >= -260
 PM[9,3,1]: c[3,1] - c[9,1] + 145 delta[3,9] - 145 delta[9,3] >= -114
 PM[9,4,0]: c[4,0] - c[9,0] - 145 delta[4,9] - 145 delta[9,4] >= -235.5
 PM[9,4,1]: c[4,1] - c[9,1] + 145 delta[4,9] - 145 delta[9,4] >= -108
 PM[9,5,0]: c[5,0] - c[9,0] - 145 delta[5,9] - 145 delta[9,5] >= -255
 PM[9,5,1]: c[5,1] - c[9,1] + 145 delta[5,9] - 145 delta[9,5] >= -120.5
 PM[9,6,0]: c[6,0] - c[9,0] - 145 delta[6,9] - 145 delta[9,6] >= -252
 PM[9,6,1]: c[6,1] - c[9,1] + 145 delta[6,9] - 145 delta[9,6] >= -122.5
 PM[9,7,0]: c[7,0] - c[9,0] - 145 delta[7,9] - 145 delta[9,7] >= -243
 PM[9,7,1]: c[7,1] - c[9,1] + 145 delta[7,9] - 145 delta[9,7] >= -113
 PM[9,8,0]: c[8,0] - c[9,0] - 145 delta[8,9] - 145 delta[9,8] >= -238
 PM[9,8,1]: c[8,1] - c[9,1] + 145 delta[8,9] - 145 delta[9,8] >= -93.5
Bounds
 20 <= c[0,0] <= 137
 19 <= c[0,1] <= 135
 8 <= c[1,0] <= 122
 12 <= c[1,1] <= 133
 14.5 <= c[2,0] <= 130.5
 5.5 <= c[2,1] <= 139.5
 18 <= c[3,0] <= 137
 15 <= c[3,1] <= 130
 42.5 <= c[4,0] <= 107.5
 21 <= c[4,1] <= 124
 23 <= c[5,0] <= 99
 8.5 <= c[5,1] <= 136.5
 26 <= c[6,0] <= 120
 6.5 <= c[6,1] <= 138.5
 35 <= c[7,0] <= 106
 16 <= c[7,1] <= 113
 40 <= c[8,0] <= 64
 35.5 <= c[8,1] <= 109.5
 12 <= c[9,0] <= 133
 39 <= c[9,1] <= 129
 39 <= h <= 145
Binaries
 delta[0,1] delta[0,2] delta[0,3] delta[0,4] delta[0,5] delta[0,6]
 delta[0,7] delta[0,8] delta[0,9] delta[1,0] delta[1,2] delta[1,3]
 delta[1,4] delta[1,5] delta[1,6] delta[1,7] delta[1,8] delta[1,9]
 delta[2,0] delta[2,1] delta[2,3] delta[2,4] delta[2,5] delta[2,6]
 delta[2,7] delta[2,8] delta[2,9] delta[3,0] delta[3,1] delta[3,2]
 delta[3,4] delta[3,5] delta[3,6] delta[3,7] delta[3,8] delta[3,9]
 delta[4,0] delta[4,1] delta[4,2] delta[4,3] delta[4,5] delta[4,6]
 delta[4,7] delta[4,8] delta[4,9] delta[5,0] delta[5,1] delta[5,2]
 delta[5,3] delta[5,4] delta[5,6] delta[5,7] delta[5,8] delta[5,9]
 delta[6,0] delta[6,1] delta[6,2] delta[6,3] delta[6,4] delta[6,5]
 delta[6,7] delta[6,8] delta[6,9] delta[7,0] delta[7,1] delta[7,2]
 delta[7,3] delta[7,4] delta[7,5] delta[7,6] delta[7,8] delta[7,9]
 delta[8,0] delta[8,1] delta[8,2] delta[8,3] delta[8,4] delta[8,5]
 delta[8,6] delta[8,7] delta[8,9] delta[9,0] delta[9,1] delta[9,2]
 delta[9,3] delta[9,4] delta[9,5] delta[9,6] delta[9,7] delta[9,8]
End
